39 41
29
3 3 9 27
3 4 9 23
3 5 36 20
3 6 36 0
3 7 36 25
3 8 13 0
3 9 36 32
3 10 36 6
3 11 9 30
3 15 9 8
4 3 5 22
4 4 5 12
4 5 12 36
4 6 5 16
4 8 9 0
4 9 17 27
4 12 5 0
4 15 12 8
4 16 5 25
5 3 0 38
5 4 0 8
5 5 16 36
5 6 16 0
5 8 0 0
5 10 12 26
5 11 0 12
5 13 0 25
5 18 16 8
15 39 21 2
